(set-logic UFLIA)
(declare-fun a () Int)
(declare-fun b () Int)
(declare-fun x () Int)
(declare-fun y () Int)
(assert (= a x))
(assert (= b y))
(assert (< a b))
(assert (not (< x y)))
(check-sat)
(exit)
